\ Model qp
\ LP format - for model browsing. Use MPS format to capture full model detail.
Minimize
 [ 0.5 u ^2 + 1000 d0 ^2 ] / 2 
Subject To
 R0: 20 u - d0 <= -517.1007261117331
 R1: u >= 177.1615777637037
Bounds
 -2.5 <= u <= 2.5
End
